clingo version 5.2.2
Reading from ...pr180_u540_o12_N010_encoding-a_maxS.lp ...
Solving...
Solving...
Solving...
Solving...
Solving...
Solving...
Solving...
Solving...
Solving...
Solving...
Solving...
Solving...
Solving...
Solving...
Solving...
Solving...
Solving...
Solving...
Solving...
Solving...
Solving...
Solving...
Solving...
Solving...
Solving...
Solving...
Solving...
Solving...
Solving...
Solving...
Solving...
Solving...
Solving...
Solving...
Solving...
Solving...
Solving...
Solving...
Solving...
Solving...
Solving...
Solving...
Solving...
Solving...
Solving...
Solving...
Solving...
Solving...
Solving...
Solving...
Solving...
Solving...
Solving...
Solving...
Solving...
Solving...
Solving...
Solving...
Solving...
Solving...
Solving...
Solving...
Solving...
UNKNOWN

TIME LIMIT   : 1
Models       : 0+
Calls        : 63
Time         : 1800.009s (Solving: 1734.85s 1st Model: 0.00s Unsat: 1654.17s)
CPU Time     : 1798.952s

Choices      : 2861317 
Conflicts    : 536858   (Analyzed: 536818)
Restarts     : 1792     (Average: 299.56 Last: 870)
Problems     : 63       (Average Length: 2.00 Splits: 0)
Lemmas       : 536818   (Deleted: 485278)
  Binary     : 1432     (Ratio:   0.27%)
  Ternary    : 5571     (Ratio:   1.04%)
  Conflict   : 536818   (Average Length:  170.0 Ratio: 100.00%) 
  Loop       : 0        (Average Length:    0.0 Ratio:   0.00%) 
  Other      : 0        (Average Length:    0.0 Ratio:   0.00%) 
Backjumps    : 536818   (Average:  5.17 Max: 3202 Sum: 2773882)
  Executed   : 536634   (Average:  5.17 Max: 3202 Sum: 2773668 Ratio:  99.99%)
  Bounded    : 184      (Average:  1.16 Max:   2 Sum:    214 Ratio:   0.01%)

Rules        : 4913103  (Original: 4335388)
  Choice     : 434     
Atoms        : 1147088  (Original: 1147029 Auxiliary: 59)
Bodies       : 4103810  (Original: 3526458)
  Count      : 13002    (Original: 28002)
Equivalences : 2140206  (Atom=Atom: 510482 Body=Body: 17382 Other: 1612342)
Tight        : Yes
Variables    : 1037881  (Eliminated:    0 Frozen: 273466)
Constraints  : 4111324  (Binary:  65.1% Ternary:  32.3% Other:   2.6%)

